(set-logic QF_NRA)
(declare-fun skoSM () Real)
(declare-fun skoS2 () Real)
(declare-fun skoSP () Real)
(declare-fun skoX () Real)
(assert (and (<= (+ (* (- 61) skoSM) (* 65 skoSP) (* 126 (* skoS2 skoSP)) (* (- 126) (* skoSM skoS2))) (- 8)) (and (= (+ skoX (* skoSM skoSM)) 1) (and (= (+ (* (- 1) skoX) (* skoSP skoSP)) 1) (and (= (* skoS2 skoS2) 2) (and (not (<= skoX 0)) (and (not (<= skoSP 0)) (and (not (<= skoSM 0)) (and (not (<= skoS2 0)) (not (<= (* (- 1) skoX) (- 1))))))))))))
(set-info :status unsat)
(check-sat)
